76996,140643,34066,122202,52640,136989,209265,26085,106911,52853,3508,7353,95318,169186,85221,157155,179598,103464,204373,147433,125316,127026,116526,55541,210518,126780,200995,100875,62724,173382,76996